; benchmark generated from python API
(set-info :status unknown)
(declare-fun stdin0 () (_ BitVec 8))
(declare-fun stdin1 () (_ BitVec 8))
(declare-fun stdin2 () (_ BitVec 8))
(declare-fun stdin3 () (_ BitVec 8))
(declare-fun stdin7 () (_ BitVec 8))
(declare-fun stdin6 () (_ BitVec 8))
(declare-fun stdin5 () (_ BitVec 8))
(declare-fun stdin4 () (_ BitVec 8))
(declare-fun stdin11 () (_ BitVec 8))
(declare-fun stdin10 () (_ BitVec 8))
(declare-fun stdin9 () (_ BitVec 8))
(declare-fun stdin8 () (_ BitVec 8))
(declare-fun stdin23 () (_ BitVec 8))
(declare-fun stdin22 () (_ BitVec 8))
(declare-fun stdin21 () (_ BitVec 8))
(declare-fun stdin20 () (_ BitVec 8))
(assert
 (not (= (concat stdin3 (concat stdin2 (concat stdin1 stdin0))) (_ bv1179011410 32))))
(assert
 (not (= (concat stdin3 (concat stdin2 (concat stdin1 stdin0))) (_ bv1481001298 32))))
(assert
 (not (= (concat stdin3 (concat stdin2 (concat stdin1 stdin0))) (_ bv1297239878 32))))
(assert
 (not (= (concat stdin3 (concat stdin2 (concat stdin1 stdin0))) (_ bv1684960046 32))))
(assert
 (not (= (concat stdin3 (concat stdin2 (concat stdin1 stdin0))) (_ bv779316836 32))))
(assert
 (not (= (concat stdin3 (concat stdin2 (concat stdin1 stdin0))) (_ bv544235878 32))))
(assert
 (let ((?x331194 (concat stdin3 (concat stdin2 (concat stdin1 stdin0)))))
 (= ?x331194 (_ bv1717661728 32))))
(assert
 (let ((?x329629 (bvor ((_ zero_extend 24) stdin0) (bvshl ((_ zero_extend 24) stdin1) (_ bv8 32)) (bvshl ((_ zero_extend 24) stdin2) (_ bv16 32)) (bvshl ((_ zero_extend 24) stdin3) (_ bv24 32)))))
 (let ((?x595558 (concat ((_ extract 31 24) ?x329629) (concat ((_ extract 23 16) ?x329629) (concat ((_ extract 15 8) ?x329629) ((_ extract 7 0) ?x329629))))))
 (= ?x595558 (_ bv1717661728 32)))))
(assert
 (let ((?x347556 (concat ((_ extract 15 8) (bvshl ((_ zero_extend 24) stdin4) (_ bv24 32))) ((_ extract 7 0) (bvshl ((_ zero_extend 24) stdin4) (_ bv24 32))))))
 (let ((?x197659 (concat ((_ extract 31 24) (bvshl ((_ zero_extend 24) stdin4) (_ bv24 32))) (concat ((_ extract 23 16) (bvshl ((_ zero_extend 24) stdin4) (_ bv24 32))) ?x347556))))
 (let ((?x397024 (bvadd ?x197659 (bvshl ((_ zero_extend 24) stdin5) (_ bv16 32)))))
 (let ((?x593592 (concat ((_ extract 31 24) ?x397024) (concat ((_ extract 23 16) ?x397024) (concat ((_ extract 15 8) ?x397024) ((_ extract 7 0) ?x397024))))))
 (let ((?x34487 (bvadd ?x593592 (bvshl ((_ zero_extend 24) stdin6) (_ bv8 32)))))
 (let ((?x125880 (concat ((_ extract 31 24) ?x34487) (concat ((_ extract 23 16) ?x34487) (concat ((_ extract 15 8) ?x34487) ((_ extract 7 0) ?x34487))))))
 (let ((?x360543 (bvadd ?x125880 ((_ zero_extend 24) stdin7))))
 (let ((?x546482 (concat ((_ extract 31 24) ?x360543) (concat ((_ extract 23 16) ?x360543) (concat ((_ extract 15 8) ?x360543) ((_ extract 7 0) ?x360543))))))
 (let ((?x350522 (concat ((_ extract 31 24) ?x546482) (concat ((_ extract 23 16) ?x546482) (concat ((_ extract 15 8) ?x546482) ((_ extract 7 0) ?x546482))))))
 (not (not (= ?x350522 (_ bv0 32))))))))))))))
(assert
 (let ((?x396054 (concat ((_ extract 15 8) (bvshl ((_ zero_extend 24) stdin8) (_ bv24 32))) ((_ extract 7 0) (bvshl ((_ zero_extend 24) stdin8) (_ bv24 32))))))
 (let ((?x593496 (concat ((_ extract 31 24) (bvshl ((_ zero_extend 24) stdin8) (_ bv24 32))) (concat ((_ extract 23 16) (bvshl ((_ zero_extend 24) stdin8) (_ bv24 32))) ?x396054))))
 (let ((?x44951 (bvadd ?x593496 (bvshl ((_ zero_extend 24) stdin9) (_ bv16 32)))))
 (let ((?x553245 (concat ((_ extract 31 24) ?x44951) (concat ((_ extract 23 16) ?x44951) (concat ((_ extract 15 8) ?x44951) ((_ extract 7 0) ?x44951))))))
 (let ((?x597157 (bvadd ?x553245 (bvshl ((_ zero_extend 24) stdin10) (_ bv8 32)))))
 (let ((?x594791 (concat ((_ extract 31 24) ?x597157) (concat ((_ extract 23 16) ?x597157) (concat ((_ extract 15 8) ?x597157) ((_ extract 7 0) ?x597157))))))
 (let ((?x67856 (bvadd ?x594791 ((_ zero_extend 24) stdin11))))
 (let ((?x110472 (concat ((_ extract 31 24) ?x67856) (concat ((_ extract 23 16) ?x67856) (concat ((_ extract 15 8) ?x67856) ((_ extract 7 0) ?x67856))))))
 (let ((?x546654 (concat ((_ extract 31 24) ?x110472) (concat ((_ extract 23 16) ?x110472) (concat ((_ extract 15 8) ?x110472) ((_ extract 7 0) ?x110472))))))
 (not (not (= ?x546654 (_ bv0 32))))))))))))))
(assert
 (let ((?x81737 (concat ((_ extract 15 8) (bvshl ((_ zero_extend 24) stdin20) (_ bv24 32))) ((_ extract 7 0) (bvshl ((_ zero_extend 24) stdin20) (_ bv24 32))))))
 (let ((?x417083 (concat ((_ extract 31 24) (bvshl ((_ zero_extend 24) stdin20) (_ bv24 32))) (concat ((_ extract 23 16) (bvshl ((_ zero_extend 24) stdin20) (_ bv24 32))) ?x81737))))
 (let ((?x597564 (bvadd ?x417083 (bvshl ((_ zero_extend 24) stdin21) (_ bv16 32)))))
 (let ((?x104454 (concat ((_ extract 31 24) ?x597564) (concat ((_ extract 23 16) ?x597564) (concat ((_ extract 15 8) ?x597564) ((_ extract 7 0) ?x597564))))))
 (let ((?x596403 (bvadd ?x104454 (bvshl ((_ zero_extend 24) stdin22) (_ bv8 32)))))
 (let ((?x231656 (concat ((_ extract 31 24) ?x596403) (concat ((_ extract 23 16) ?x596403) (concat ((_ extract 15 8) ?x596403) ((_ extract 7 0) ?x596403))))))
 (let ((?x160 (bvadd ?x231656 ((_ zero_extend 24) stdin23))))
 (let ((?x332768 (concat ((_ extract 31 24) ?x160) (concat ((_ extract 23 16) ?x160) (concat ((_ extract 15 8) ?x160) ((_ extract 7 0) ?x160))))))
 (let ((?x409758 (concat ((_ extract 31 24) ?x332768) (concat ((_ extract 23 16) ?x332768) (concat ((_ extract 15 8) ?x332768) ((_ extract 7 0) ?x332768))))))
 (bvslt ?x409758 (_ bv1 32))))))))))))
(assert
 (let ((?x284196 (concat stdin8 (concat stdin7 (concat stdin6 (concat stdin5 stdin4))))))
 (let ((?x75668 (bvadd (bvmul ((_ zero_extend 32) (_ bv16 32)) (_ bv1 64)) (concat stdin11 (concat stdin10 (concat stdin9 ?x284196))))))
 (= ?x75668 (_ bv140727876781488 64)))))
(check-sat)
